c leafs=64, vars=16, seed=1, tickle=None
p cnf 800 2161                                                                
e 17 18 19 20 21 22 23 24 25 26 27 28 29 30 31 32 33 34 35 36 37 38 39 40 41 42 43 44 45 46 47 48 49 50 51 52 53 54 55 56 57 58 59 60 61 62 63 64 65 66 67 68 69 70 71 72 73 74 75 76 77 78 79 80  0
a 1 2 3 4 5 6 7 8 9 10 11 12 13 14 15 16  0
e 81 82 83 84 85 86 87 88 89 90 91 92 93 94 95 96 97 98 99 100 101 102 103 104 105 106 107 108 109 110 111 112 113 114 115 116 117 118 119 120 121 122 123 124 125 126 127 128 129 130 131 132 133 134 135 136 137 138 139 140 141 142 143 144 145 146 147 148 149 150 151 152 153 154 155 156 157 158 159 160 161 162 163 164 165 166 167 168 169 170 171 172 173 174 175 176 177 178 179 180 181 182 183 184 185 186 187 188 189 190 191 192 193 194 195 196 197 198 199 200 201 202 203 204 205 206 207 208 209 210 211 212 213 214 215 216 217 218 219 220 221 222 223 224 225 226 227 228 229 230 231 232 233 234 235 236 237 238 239 240 241 242 243 244 245 246 247 248 249 250 251 252 253 254 255 256 257 258 259 260 261 262 263 264 265 266 267 268 269 270 271 272 273 274 275 276 277 278 279 280 281 282 283 284 285 286 287 288 289 290 291 292 293 294 295 296 297 298 299 300 301 302 303 304 305 306 307 308 309 310 311 312 313 314 315 316 317 318 319 320 321 322 323 324 325 326 327 328 329 330 331 332 333 334 335 336 337 338 339 340 341 342 343 344 345 346 347 348 349 350 351 352 353 354 355 356 357 358 359 360 361 362 363 364 365 366 367 368 369 370 371 372 373 374 375 376 377 378 379 380 381 382 383 384 385 386 387 388 389 390 391 392 393 394 395 396 397 398 399 400 401 402 403 404 405 406 407 408 409 410 411 412 413 414 415 416 417 418 419 420 421 422 423 424 425 426 427 428 429 430 431 432 433 434 435 436 437 438 439 440 441 442 443 444 445 446 447 448 449 450 451 452 453 454 455 456 457 458 459 460 461 462 463 464 465 466 467 468 469 470 471 472 473 474 475 476 477 478 479 480 481 482 483 484 485 486 487 488 489 490 491 492 493 494 495 496 497 498 499 500 501 502 503 504 505 506 507 508 509 510 511 512 513 514 515 516 517 518 519 520 521 522 523 524 525 526 527 528 529 530 531 532 533 534 535 536 537 538 539 540 541 542 543 544 545 546 547 548 549 550 551 552 553 554 555 556 557 558 559 560 561 562 563 564 565 566 567 568 569 570 571 572 573 574 575 576 577 578 579 580 581 582 583 584 585 586 587 588 589 590 591 592 593 594 595 596 597 598 599 600 601 602 603 604 605 606 607 608 609 610 611 612 613 614 615 616 617 618 619 620 621 622 623 624 625 626 627 628 629 630 631 632 633 634 635 636 637 638 639 640 641 642 643 644 645 646 647 648 649 650 651 652 653 654 655 656 657 658 659 660 661 662 663 664 665 666 667 668 669 670 671 672 673 674 675 676 677 678 679 680 681 682 683 684 685 686 687 688 689 690 691 692 693 694 695 696 697 698 699 700 701 702 703 704 705 706 707 708 709 710 711 712 713 714 715 716 717 718 719 720 721 722 723 724 725 726 727 728 729 730 731 732 733 734 735 736 737 738 739 740 741 742 743 744 745 746 747 748 749 750 751 752 753 754 755 756 757 758 759 760 761 762 763 764 765 766 767 768 769 770 771 772 773 774 775 776 777 778 779 780 781 782 783 784 785 786 787 788 789 790 791 792 793 794 795 796 797 798 799 800  0
800  0
81 13 -6  0
-81 -13  0
-81 6  0
82 6 -13  0
-82 -6  0
-82 13  0
-83 -7 -4  0
83 7  0
83 4  0
-84 4 7  0
84 -4  0
84 -7  0
-85 -11 -5  0
85 11  0
85 5  0
-86 5 11  0
86 -5  0
86 -11  0
-87 -7 4  0
87 7  0
87 -4  0
-88 -4 7  0
88 4  0
88 -7  0
89 10 3  0
-89 -10  0
-89 -3  0
90 -3 -10  0
-90 3  0
-90 10  0
91 2 -6  0
-91 -2  0
-91 6  0
92 6 -2  0
-92 -6  0
-92 2  0
93 9 -3  0
-93 -9  0
-93 3  0
94 3 -9  0
-94 -3  0
-94 9  0
95 11 -2  0
-95 -11  0
-95 2  0
96 2 -11  0
-96 -2  0
-96 11  0
97 -2 -5  0
-97 2  0
-97 5  0
98 5 2  0
-98 -5  0
-98 -2  0
-99 -7 1  0
99 7  0
99 -1  0
-100 -1 7  0
100 1  0
100 -7  0
-101 -1 15  0
101 1  0
101 -15  0
-102 -15 1  0
102 15  0
102 -1  0
-103 -16 -11  0
103 16  0
103 11  0
-104 11 16  0
104 -11  0
104 -16  0
-105 -8 16  0
105 8  0
105 -16  0
-106 -16 8  0
106 16  0
106 -8  0
-107 -15 13  0
107 15  0
107 -13  0
-108 -13 15  0
108 13  0
108 -15  0
-109 -9 14  0
109 9  0
109 -14  0
-110 -14 9  0
110 14  0
110 -9  0
-111 13 15  0
111 -13  0
111 -15  0
-112 -15 -13  0
112 15  0
112 13  0
-113 -15 -1  0
113 15  0
113 1  0
-114 1 15  0
114 -1  0
114 -15  0
115 -1 -7  0
-115 1  0
-115 7  0
116 7 1  0
-116 -7  0
-116 -1  0
-117 -13 -1  0
117 13  0
117 1  0
-118 1 13  0
118 -1  0
118 -13  0
-119 -3 5  0
119 3  0
119 -5  0
-120 -5 3  0
120 5  0
120 -3  0
-121 -13 1  0
121 13  0
121 -1  0
-122 -1 13  0
122 1  0
122 -13  0
-123 11 15  0
123 -11  0
123 -15  0
-124 -15 -11  0
124 15  0
124 11  0
125 15 -11  0
-125 -15  0
-125 11  0
126 11 -15  0
-126 -11  0
-126 15  0
-127 -11 72  0
127 11  0
127 -72  0
-128 -72 -15  0
128 72  0
128 15  0
-129 -71 -10  0
129 71  0
129 10  0
-130 13 71  0
130 -13  0
130 -71  0
-131 -10 69  0
131 10  0
131 -69  0
-132 -69 9  0
132 69  0
132 -9  0
-133 -70 -2  0
133 70  0
133 2  0
-134 -14 70  0
134 14  0
134 -70  0
-135 -8 68  0
135 8  0
135 -68  0
-136 -68 -12  0
136 68  0
136 12  0
-137 -67 11  0
137 67  0
137 -11  0
-138 16 67  0
138 -16  0
138 -67  0
139 66 -2  0
-139 -66  0
-139 2  0
140 1 -66  0
-140 -1  0
-140 66  0
141 65 -2  0
-141 -65  0
-141 2  0
142 7 -65  0
-142 -7  0
-142 65  0
143 77 -8  0
-143 -77  0
-143 8  0
144 6 -77  0
-144 -6  0
-144 77  0
145 2 -78  0
-145 -2  0
-145 78  0
146 78 13  0
-146 -78  0
-146 -13  0
147 80 5  0
-147 -80  0
-147 -5  0
148 16 -80  0
-148 -16  0
-148 80  0
149 8 -79  0
-149 -8  0
-149 79  0
150 79 11  0
-150 -79  0
-150 -11  0
151 8 -75  0
-151 -8  0
-151 75  0
152 75 1  0
-152 -75  0
-152 -1  0
153 76 -14  0
-153 -76  0
-153 14  0
154 -15 -76  0
-154 15  0
-154 76  0
-155 -4 74  0
155 4  0
155 -74  0
-156 -74 -6  0
156 74  0
156 6  0
-157 7 73  0
157 -7  0
157 -73  0
-158 -73 11  0
158 73  0
158 -11  0
-159 -53 -4  0
159 53  0
159 4  0
-160 2 53  0
160 -2  0
160 -53  0
-161 15 54  0
161 -15  0
161 -54  0
-162 -54 5  0
162 54  0
162 -5  0
-163 13 55  0
163 -13  0
163 -55  0
-164 -55 -3  0
164 55  0
164 3  0
-165 -56 9  0
165 56  0
165 -9  0
-166 15 56  0
166 -15  0
166 -56  0
167 10 -51  0
-167 -10  0
-167 51  0
168 51 -14  0
-168 -51  0
-168 14  0
169 52 -2  0
-169 -52  0
-169 2  0
170 13 -52  0
-170 -13  0
-170 52  0
-171 9 50  0
171 -9  0
171 -50  0
-172 -50 -7  0
172 50  0
172 7  0
-173 12 49  0
173 -12  0
173 -49  0
-174 -49 1  0
174 49  0
174 -1  0
-175 -7 58  0
175 7  0
175 -58  0
-176 -58 10  0
176 58  0
176 -10  0
-177 -57 4  0
177 57  0
177 -4  0
-178 -16 57  0
178 16  0
178 -57  0
-179 -8 60  0
179 8  0
179 -60  0
-180 -60 11  0
180 60  0
180 -11  0
-181 -59 -2  0
181 59  0
181 2  0
-182 -7 59  0
182 7  0
182 -59  0
-183 3 63  0
183 -3  0
183 -63  0
-184 -63 8  0
184 63  0
184 -8  0
-185 -9 64  0
185 9  0
185 -64  0
-186 -64 2  0
186 64  0
186 -2  0
-187 4 61  0
187 -4  0
187 -61  0
-188 -61 -5  0
188 61  0
188 5  0
-189 -14 62  0
189 14  0
189 -62  0
-190 -62 -15  0
190 62  0
190 15  0
-191 -16 29  0
191 16  0
191 -29  0
-192 -29 -14  0
192 29  0
192 14  0
-193 -30 1  0
193 30  0
193 -1  0
-194 -9 30  0
194 9  0
194 -30  0
195 32 5  0
-195 -32  0
-195 -5  0
196 -11 -32  0
-196 11  0
-196 32  0
197 31 15  0
-197 -31  0
-197 -15  0
198 -4 -31  0
-198 4  0
-198 31  0
-199 -6 28  0
199 6  0
199 -28  0
-200 -28 -7  0
200 28  0
200 7  0
-201 -27 12  0
201 27  0
201 -12  0
-202 -2 27  0
202 2  0
202 -27  0
203 25 3  0
-203 -25  0
-203 -3  0
204 4 -25  0
-204 -4  0
-204 25  0
205 -5 -26  0
-205 5  0
-205 26  0
206 26 9  0
-206 -26  0
-206 -9  0
207 18 13  0
-207 -18  0
-207 -13  0
208 -3 -18  0
-208 3  0
-208 18  0
209 17 -5  0
-209 -17  0
-209 5  0
210 10 -17  0
-210 -10  0
-210 17  0
-211 -16 19  0
211 16  0
211 -19  0
-212 -19 -4  0
212 19  0
212 4  0
-213 14 20  0
213 -14  0
213 -20  0
-214 -20 -13  0
214 20  0
214 13  0
215 24 9  0
-215 -24  0
-215 -9  0
216 1 -24  0
-216 -1  0
-216 24  0
217 23 13  0
-217 -23  0
-217 -13  0
218 -2 -23  0
-218 2  0
-218 23  0
219 15 -21  0
-219 -15  0
-219 21  0
220 21 6  0
-220 -21  0
-220 -6  0
221 -7 -22  0
-221 7  0
-221 22  0
222 22 -10  0
-222 -22  0
-222 10  0
223 40 -8  0
-223 -40  0
-223 8  0
224 -16 -40  0
-224 16  0
-224 40  0
225 39 -13  0
-225 -39  0
-225 13  0
226 -12 -39  0
-226 12  0
-226 39  0
227 38 -13  0
-227 -38  0
-227 13  0
228 -3 -38  0
-228 3  0
-228 38  0
229 -14 -37  0
-229 14  0
-229 37  0
230 37 10  0
-230 -37  0
-230 -10  0
231 8 -33  0
-231 -8  0
-231 33  0
232 33 13  0
-232 -33  0
-232 -13  0
233 -6 -34  0
-233 6  0
-233 34  0
234 34 10  0
-234 -34  0
-234 -10  0
-235 -36 2  0
235 36  0
235 -2  0
-236 -4 36  0
236 4  0
236 -36  0
-237 1 35  0
237 -1  0
237 -35  0
-238 -35 10  0
238 35  0
238 -10  0
239 46 11  0
-239 -46  0
-239 -11  0
240 3 -46  0
-240 -3  0
-240 46  0
241 -5 -45  0
-241 5  0
-241 45  0
242 45 8  0
-242 -45  0
-242 -8  0
243 7 -47  0
-243 -7  0
-243 47  0
244 47 12  0
-244 -47  0
-244 -12  0
245 48 1  0
-245 -48  0
-245 -1  0
246 -15 -48  0
-246 15  0
-246 48  0
247 4 -44  0
-247 -4  0
-247 44  0
248 44 -13  0
-248 -44  0
-248 13  0
249 -10 -43  0
-249 10  0
-249 43  0
250 43 7  0
-250 -43  0
-250 -7  0
-251 -42 -1  0
251 42  0
251 1  0
-252 5 42  0
252 -5  0
252 -42  0
-253 -11 41  0
253 11  0
253 -41  0
-254 -41 -2  0
254 41  0
254 2  0
-255 -14 -9  0
255 14  0
255 9  0
-256 9 14  0
256 -9  0
256 -14  0
-257 81 82  0
257 -81  0
257 -82  0
258 -83 -84  0
-258 83  0
-258 84  0
259 -85 -86  0
-259 85  0
-259 86  0
260 -87 -88  0
-260 87  0
-260 88  0
-261 89 90  0
261 -89  0
261 -90  0
-262 91 92  0
262 -91  0
262 -92  0
-263 93 94  0
263 -93  0
263 -94  0
-264 95 96  0
264 -95  0
264 -96  0
-265 97 98  0
265 -97  0
265 -98  0
266 -99 -100  0
-266 99  0
-266 100  0
267 -101 -102  0
-267 101  0
-267 102  0
268 -103 -104  0
-268 103  0
-268 104  0
269 -105 -106  0
-269 105  0
-269 106  0
270 -107 -108  0
-270 107  0
-270 108  0
271 -109 -110  0
-271 109  0
-271 110  0
272 -111 -112  0
-272 111  0
-272 112  0
273 -113 -114  0
-273 113  0
-273 114  0
-274 115 116  0
274 -115  0
274 -116  0
275 -117 -118  0
-275 117  0
-275 118  0
276 -119 -120  0
-276 119  0
-276 120  0
277 -121 -122  0
-277 121  0
-277 122  0
278 -123 -124  0
-278 123  0
-278 124  0
-279 125 126  0
279 -125  0
279 -126  0
280 -127 -128  0
-280 127  0
-280 128  0
281 -129 -130  0
-281 129  0
-281 130  0
282 -131 -132  0
-282 131  0
-282 132  0
283 -133 -134  0
-283 133  0
-283 134  0
284 -135 -136  0
-284 135  0
-284 136  0
285 -137 -138  0
-285 137  0
-285 138  0
-286 139 140  0
286 -139  0
286 -140  0
-287 141 142  0
287 -141  0
287 -142  0
-288 143 144  0
288 -143  0
288 -144  0
-289 145 146  0
289 -145  0
289 -146  0
-290 147 148  0
290 -147  0
290 -148  0
-291 149 150  0
291 -149  0
291 -150  0
-292 151 152  0
292 -151  0
292 -152  0
-293 153 154  0
293 -153  0
293 -154  0
294 -155 -156  0
-294 155  0
-294 156  0
295 -157 -158  0
-295 157  0
-295 158  0
296 -159 -160  0
-296 159  0
-296 160  0
297 -161 -162  0
-297 161  0
-297 162  0
298 -163 -164  0
-298 163  0
-298 164  0
299 -165 -166  0
-299 165  0
-299 166  0
-300 167 168  0
300 -167  0
300 -168  0
-301 169 170  0
301 -169  0
301 -170  0
302 -171 -172  0
-302 171  0
-302 172  0
303 -173 -174  0
-303 173  0
-303 174  0
304 -175 -176  0
-304 175  0
-304 176  0
305 -177 -178  0
-305 177  0
-305 178  0
306 -179 -180  0
-306 179  0
-306 180  0
307 -181 -182  0
-307 181  0
-307 182  0
308 -183 -184  0
-308 183  0
-308 184  0
309 -185 -186  0
-309 185  0
-309 186  0
310 -187 -188  0
-310 187  0
-310 188  0
311 -189 -190  0
-311 189  0
-311 190  0
312 -191 -192  0
-312 191  0
-312 192  0
313 -193 -194  0
-313 193  0
-313 194  0
-314 195 196  0
314 -195  0
314 -196  0
-315 197 198  0
315 -197  0
315 -198  0
316 -199 -200  0
-316 199  0
-316 200  0
317 -201 -202  0
-317 201  0
-317 202  0
-318 203 204  0
318 -203  0
318 -204  0
-319 205 206  0
319 -205  0
319 -206  0
-320 207 208  0
320 -207  0
320 -208  0
-321 209 210  0
321 -209  0
321 -210  0
322 -211 -212  0
-322 211  0
-322 212  0
323 -213 -214  0
-323 213  0
-323 214  0
-324 215 216  0
324 -215  0
324 -216  0
-325 217 218  0
325 -217  0
325 -218  0
-326 219 220  0
326 -219  0
326 -220  0
-327 221 222  0
327 -221  0
327 -222  0
-328 223 224  0
328 -223  0
328 -224  0
-329 225 226  0
329 -225  0
329 -226  0
-330 227 228  0
330 -227  0
330 -228  0
-331 229 230  0
331 -229  0
331 -230  0
-332 231 232  0
332 -231  0
332 -232  0
-333 233 234  0
333 -233  0
333 -234  0
334 -235 -236  0
-334 235  0
-334 236  0
335 -237 -238  0
-335 237  0
-335 238  0
-336 239 240  0
336 -239  0
336 -240  0
-337 241 242  0
337 -241  0
337 -242  0
-338 243 244  0
338 -243  0
338 -244  0
-339 245 246  0
339 -245  0
339 -246  0
-340 247 248  0
340 -247  0
340 -248  0
-341 249 250  0
341 -249  0
341 -250  0
342 -251 -252  0
-342 251  0
-342 252  0
343 -253 -254  0
-343 253  0
-343 254  0
344 -255 -256  0
-344 255  0
-344 256  0
345 -11 -258  0
-345 11  0
-345 258  0
346 11 -258  0
-346 -11  0
-346 258  0
-347 259 260  0
347 -259  0
347 -260  0
-348 -9 262  0
348 9  0
348 -262  0
-349 9 262  0
349 -9  0
349 -262  0
350 -14 -263  0
-350 14  0
-350 263  0
351 14 -263  0
-351 -14  0
-351 263  0
352 -13 -266  0
-352 13  0
-352 266  0
353 13 -266  0
-353 -13  0
-353 266  0
354 -267 -260  0
-354 267  0
-354 260  0
-355 -2 268  0
355 2  0
355 -268  0
-356 2 268  0
356 -2  0
356 -268  0
357 -270 -271  0
-357 270  0
-357 271  0
-358 -9 272  0
358 9  0
358 -272  0
-359 9 272  0
359 -9  0
359 -272  0
-360 273 258  0
360 -273  0
360 -258  0
361 16 -274  0
-361 -16  0
-361 274  0
362 -16 -274  0
-362 16  0
-362 274  0
363 14 -276  0
-363 -14  0
-363 276  0
364 -14 -276  0
-364 14  0
-364 276  0
365 -280 -281  0
-365 280  0
-365 281  0
366 280 281  0
-366 -280  0
-366 -281  0
367 -282 -283  0
-367 282  0
-367 283  0
368 283 282  0
-368 -283  0
-368 -282  0
369 -284 -285  0
-369 284  0
-369 285  0
370 284 285  0
-370 -284  0
-370 -285  0
371 -286 -287  0
-371 286  0
-371 287  0
372 287 286  0
-372 -287  0
-372 -286  0
373 -288 -289  0
-373 288  0
-373 289  0
374 289 288  0
-374 -289  0
-374 -288  0
375 -290 -291  0
-375 290  0
-375 291  0
376 290 291  0
-376 -290  0
-376 -291  0
377 -292 -293  0
-377 292  0
-377 293  0
378 293 292  0
-378 -293  0
-378 -292  0
379 -294 -295  0
-379 294  0
-379 295  0
380 295 294  0
-380 -295  0
-380 -294  0
-381 296 297  0
381 -296  0
381 -297  0
-382 -296 -297  0
382 296  0
382 297  0
-383 298 299  0
383 -298  0
383 -299  0
-384 -299 -298  0
384 299  0
384 298  0
-385 300 301  0
385 -300  0
385 -301  0
-386 -300 -301  0
386 300  0
386 301  0
-387 302 303  0
387 -302  0
387 -303  0
-388 -302 -303  0
388 302  0
388 303  0
389 -304 -305  0
-389 304  0
-389 305  0
390 304 305  0
-390 -304  0
-390 -305  0
391 -306 -307  0
-391 306  0
-391 307  0
392 306 307  0
-392 -306  0
-392 -307  0
393 -308 -309  0
-393 308  0
-393 309  0
394 308 309  0
-394 -308  0
-394 -309  0
395 -310 -311  0
-395 310  0
-395 311  0
396 311 310  0
-396 -311  0
-396 -310  0
-397 312 313  0
397 -312  0
397 -313  0
-398 -313 -312  0
398 313  0
398 312  0
-399 314 315  0
399 -314  0
399 -315  0
-400 -315 -314  0
400 315  0
400 314  0
-401 316 317  0
401 -316  0
401 -317  0
-402 -316 -317  0
402 316  0
402 317  0
-403 318 319  0
403 -318  0
403 -319  0
-404 -319 -318  0
404 319  0
404 318  0
-405 320 321  0
405 -320  0
405 -321  0
-406 -321 -320  0
406 321  0
406 320  0
-407 322 323  0
407 -322  0
407 -323  0
-408 -323 -322  0
408 323  0
408 322  0
-409 324 325  0
409 -324  0
409 -325  0
-410 -325 -324  0
410 325  0
410 324  0
-411 326 327  0
411 -326  0
411 -327  0
-412 -326 -327  0
412 326  0
412 327  0
413 -328 -329  0
-413 328  0
-413 329  0
414 329 328  0
-414 -329  0
-414 -328  0
415 -330 -331  0
-415 330  0
-415 331  0
416 330 331  0
-416 -330  0
-416 -331  0
417 -332 -333  0
-417 332  0
-417 333  0
418 332 333  0
-418 -332  0
-418 -333  0
419 -334 -335  0
-419 334  0
-419 335  0
420 334 335  0
-420 -334  0
-420 -335  0
421 -336 -337  0
-421 336  0
-421 337  0
422 337 336  0
-422 -337  0
-422 -336  0
423 -338 -339  0
-423 338  0
-423 339  0
424 339 338  0
-424 -339  0
-424 -338  0
425 -340 -341  0
-425 340  0
-425 341  0
426 340 341  0
-426 -340  0
-426 -341  0
427 -342 -343  0
-427 342  0
-427 343  0
428 343 342  0
-428 -343  0
-428 -342  0
-429 272 344  0
429 -272  0
429 -344  0
430 -9 -270  0
-430 9  0
-430 270  0
431 9 -270  0
-431 -9  0
-431 270  0
-432 -5 345  0
432 5  0
432 -345  0
-433 5 346  0
433 -5  0
433 -346  0
-434 -12 347  0
434 12  0
434 -347  0
-435 12 347  0
435 -12  0
435 -347  0
-436 -8 347  0
436 8  0
436 -347  0
-437 8 347  0
437 -8  0
437 -347  0
438 -3 -348  0
-438 3  0
-438 348  0
439 3 -349  0
-439 -3  0
-439 349  0
440 -5 -350  0
-440 5  0
-440 350  0
441 5 -351  0
-441 -5  0
-441 351  0
-442 10 352  0
442 -10  0
442 -352  0
-443 -10 353  0
443 10  0
443 -353  0
-444 -6 355  0
444 6  0
444 -355  0
-445 6 356  0
445 -6  0
445 -356  0
-446 7 357  0
446 -7  0
446 -357  0
-447 -14 358  0
447 14  0
447 -358  0
-448 14 359  0
448 -14  0
448 -359  0
-449 -7 357  0
449 7  0
449 -357  0
450 -8 -361  0
-450 8  0
-450 361  0
451 8 -362  0
-451 -8  0
-451 362  0
-452 -4 363  0
452 4  0
452 -363  0
-453 4 364  0
453 -4  0
453 -364  0
-454 365 366  0
454 -365  0
454 -366  0
-455 367 368  0
455 -367  0
455 -368  0
-456 369 370  0
456 -369  0
456 -370  0
-457 371 372  0
457 -371  0
457 -372  0
-458 373 374  0
458 -373  0
458 -374  0
-459 375 376  0
459 -375  0
459 -376  0
-460 377 378  0
460 -377  0
460 -378  0
-461 379 380  0
461 -379  0
461 -380  0
462 -381 -382  0
-462 381  0
-462 382  0
463 -383 -384  0
-463 383  0
-463 384  0
464 -385 -386  0
-464 385  0
-464 386  0
465 -387 -388  0
-465 387  0
-465 388  0
-466 389 390  0
466 -389  0
466 -390  0
-467 391 392  0
467 -391  0
467 -392  0
-468 393 394  0
468 -393  0
468 -394  0
-469 395 396  0
469 -395  0
469 -396  0
470 -397 -398  0
-470 397  0
-470 398  0
471 -399 -400  0
-471 399  0
-471 400  0
472 -401 -402  0
-472 401  0
-472 402  0
473 -403 -404  0
-473 403  0
-473 404  0
474 -405 -406  0
-474 405  0
-474 406  0
475 -407 -408  0
-475 407  0
-475 408  0
476 -409 -410  0
-476 409  0
-476 410  0
477 -411 -412  0
-477 411  0
-477 412  0
-478 413 414  0
478 -413  0
478 -414  0
-479 415 416  0
479 -415  0
479 -416  0
-480 417 418  0
480 -417  0
480 -418  0
-481 419 420  0
481 -419  0
481 -420  0
-482 421 422  0
482 -421  0
482 -422  0
-483 423 424  0
483 -423  0
483 -424  0
-484 425 426  0
484 -425  0
484 -426  0
-485 427 428  0
485 -427  0
485 -428  0
-486 7 429  0
486 -7  0
486 -429  0
-487 -14 430  0
487 14  0
487 -430  0
-488 14 431  0
488 -14  0
488 -431  0
-489 -7 429  0
489 7  0
489 -429  0
490 -432 -433  0
-490 432  0
-490 433  0
-491 438 439  0
491 -438  0
491 -439  0
-492 440 441  0
492 -440  0
492 -441  0
493 -442 -443  0
-493 442  0
-493 443  0
494 -444 -445  0
-494 444  0
-494 445  0
495 -447 -448  0
-495 447  0
-495 448  0
-496 450 451  0
496 -450  0
496 -451  0
497 -452 -453  0
-497 452  0
-497 453  0
-498 454 455  0
498 -454  0
498 -455  0
499 -456 -457  0
-499 456  0
-499 457  0
500 -458 -459  0
-500 458  0
-500 459  0
-501 460 461  0
501 -460  0
501 -461  0
-502 462 463  0
502 -462  0
502 -463  0
503 -464 -465  0
-503 464  0
-503 465  0
-504 466 467  0
504 -466  0
504 -467  0
505 -468 -469  0
-505 468  0
-505 469  0
-506 470 471  0
506 -470  0
506 -471  0
-507 472 473  0
507 -472  0
507 -473  0
-508 474 475  0
508 -474  0
508 -475  0
-509 476 477  0
509 -476  0
509 -477  0
-510 478 479  0
510 -478  0
510 -479  0
-511 480 481  0
511 -480  0
511 -481  0
-512 482 483  0
512 -482  0
512 -483  0
-513 484 485  0
513 -484  0
513 -485  0
514 -487 -488  0
-514 487  0
-514 488  0
-515 12 490  0
515 -12  0
515 -490  0
-516 -12 490  0
516 12  0
516 -490  0
517 -16 -492  0
-517 16  0
-517 492  0
518 16 492  0
-518 -16  0
-518 -492  0
-519 -492 -264  0
519 492  0
519 264  0
-520 354 494  0
520 -354  0
520 -494  0
-521 -354 -494  0
521 354  0
521 494  0
-522 -7 495  0
522 7  0
522 -495  0
-523 7 495  0
523 -7  0
523 -495  0
-524 -269 495  0
524 269  0
524 -495  0
-525 360 494  0
525 -360  0
525 -494  0
-526 -360 -494  0
526 360  0
526 494  0
-527 498 499  0
527 -498  0
527 -499  0
-528 -499 -498  0
528 499  0
528 498  0
-529 500 501  0
529 -500  0
529 -501  0
-530 -501 -500  0
530 501  0
530 500  0
-531 502 503  0
531 -502  0
531 -503  0
-532 -502 -503  0
532 502  0
532 503  0
-533 504 505  0
533 -504  0
533 -505  0
-534 -505 -504  0
534 505  0
534 504  0
-535 506 507  0
535 -506  0
535 -507  0
-536 -506 -507  0
536 506  0
536 507  0
-537 508 509  0
537 -508  0
537 -509  0
-538 -509 -508  0
538 509  0
538 508  0
-539 510 511  0
539 -510  0
539 -511  0
-540 -510 -511  0
540 510  0
540 511  0
-541 512 513  0
541 -512  0
541 -513  0
-542 -513 -512  0
542 513  0
542 512  0
-543 -7 514  0
543 7  0
543 -514  0
-544 7 514  0
544 -7  0
544 -514  0
-545 514 -269  0
545 -514  0
545 269  0
546 -515 -434  0
-546 515  0
-546 434  0
547 -516 -435  0
-547 516  0
-547 435  0
-548 517 518  0
548 -517  0
548 -518  0
549 -520 -521  0
-549 520  0
-549 521  0
550 -446 -522  0
-550 446  0
-550 522  0
551 -523 -449  0
-551 523  0
-551 449  0
552 -525 -526  0
-552 525  0
-552 526  0
553 -527 -528  0
-553 527  0
-553 528  0
554 -529 -530  0
-554 529  0
-554 530  0
555 -531 -532  0
-555 531  0
-555 532  0
556 -533 -534  0
-556 533  0
-556 534  0
557 -535 -536  0
-557 535  0
-557 536  0
558 -537 -538  0
-558 537  0
-558 538  0
559 -539 -540  0
-559 539  0
-559 540  0
560 -541 -542  0
-560 541  0
-560 542  0
561 -486 -543  0
-561 486  0
-561 543  0
562 -489 -544  0
-562 489  0
-562 544  0
-563 15 546  0
563 -15  0
563 -546  0
-564 -15 547  0
564 15  0
564 -547  0
-565 -10 548  0
565 10  0
565 -548  0
-566 10 -548  0
566 -10  0
566 548  0
-567 1 550  0
567 -1  0
567 -550  0
-568 -1 551  0
568 1  0
568 -551  0
569 13 -552  0
-569 -13  0
-569 552  0
570 -13 -552  0
-570 13  0
-570 552  0
-571 271 552  0
571 -271  0
571 -552  0
-572 553 554  0
572 -553  0
572 -554  0
573 -555 -556  0
-573 555  0
-573 556  0
-574 557 558  0
574 -557  0
574 -558  0
575 -559 -560  0
-575 559  0
-575 560  0
-576 549 271  0
576 -549  0
576 -271  0
-577 13 549  0
577 -13  0
577 -549  0
-578 -13 549  0
578 13  0
578 -549  0
-579 1 561  0
579 -1  0
579 -561  0
-580 -1 562  0
580 1  0
580 -562  0
581 -563 -564  0
-581 563  0
-581 564  0
582 -565 -566  0
-582 565  0
-582 566  0
583 -567 -568  0
-583 567  0
-583 568  0
-584 15 569  0
584 -15  0
584 -569  0
-585 -15 570  0
585 15  0
585 -570  0
-586 15 570  0
586 -15  0
586 -570  0
-587 -15 569  0
587 15  0
587 -569  0
588 -572 -573  0
-588 572  0
-588 573  0
589 573 572  0
-589 -573  0
-589 -572  0
590 -574 -575  0
-590 574  0
-590 575  0
591 574 575  0
-591 -574  0
-591 -575  0
-592 -15 577  0
592 15  0
592 -577  0
-593 15 578  0
593 -15  0
593 -578  0
-594 -15 578  0
594 15  0
594 -578  0
-595 15 577  0
595 -15  0
595 -577  0
596 -579 -580  0
-596 579  0
-596 580  0
-597 8 581  0
597 -8  0
597 -581  0
-598 -8 581  0
598 8  0
598 -581  0
-599 582 264  0
599 -582  0
599 -264  0
-600 269 583  0
600 -269  0
600 -583  0
601 -584 -585  0
-601 584  0
-601 585  0
602 -586 -587  0
-602 586  0
-602 587  0
-603 588 589  0
603 -588  0
603 -589  0
-604 590 591  0
604 -590  0
604 -591  0
605 -592 -593  0
-605 592  0
-605 593  0
606 -594 -595  0
-606 594  0
-606 595  0
-607 269 596  0
607 -269  0
607 -596  0
608 -597 -436  0
-608 597  0
-608 436  0
609 -437 -598  0
-609 437  0
-609 598  0
610 -599 -519  0
-610 599  0
-610 519  0
611 -600 -524  0
-611 600  0
-611 524  0
612 -271 -601  0
-612 271  0
-612 601  0
-613 -271 602  0
613 271  0
613 -602  0
-614 603 604  0
614 -603  0
614 -604  0
-615 605 -271  0
615 -605  0
615 271  0
-616 344 606  0
616 -344  0
616 -606  0
617 -607 -545  0
-617 607  0
-617 545  0
-618 -3 608  0
618 3  0
618 -608  0
-619 3 609  0
619 -3  0
619 -609  0
-620 610 265  0
620 -610  0
620 -265  0
621 -3 -610  0
-621 3  0
-621 610  0
622 3 -610  0
-622 -3  0
-622 610  0
-623 549 611  0
623 -549  0
623 -611  0
-624 612 496  0
624 -612  0
624 -496  0
625 -613 -571  0
-625 613  0
-625 571  0
626 -576 -615  0
-626 576  0
-626 615  0
-627 616 496  0
627 -616  0
627 -496  0
628 -617 -552  0
-628 617  0
-628 552  0
629 -618 -619  0
-629 618  0
-629 619  0
-630 -9 621  0
630 9  0
630 -621  0
-631 9 622  0
631 -9  0
631 -622  0
-632 9 621  0
632 -9  0
632 -621  0
-633 -9 622  0
633 9  0
633 -622  0
-634 625 -496  0
634 -625  0
634 496  0
-635 626 -496  0
635 -626  0
635 496  0
-636 12 629  0
636 -12  0
636 -629  0
-637 -12 629  0
637 12  0
637 -629  0
-638 261 629  0
638 -261  0
638 -629  0
639 -630 -631  0
-639 630  0
-639 631  0
640 -632 -633  0
-640 632  0
-640 633  0
641 -624 -634  0
-641 624  0
-641 634  0
642 -635 -627  0
-642 635  0
-642 627  0
-643 -16 636  0
643 16  0
643 -636  0
-644 16 637  0
644 -16  0
644 -637  0
-645 16 636  0
645 -16  0
645 -636  0
-646 -16 637  0
646 16  0
646 -637  0
-647 -265 639  0
647 265  0
647 -639  0
648 2 -640  0
-648 -2  0
-648 640  0
649 -2 -640  0
-649 2  0
-649 640  0
650 -643 -644  0
-650 643  0
-650 644  0
651 -645 -646  0
-651 645  0
-651 646  0
652 -620 -647  0
-652 620  0
-652 647  0
-653 5 648  0
653 -5  0
653 -648  0
-654 -5 649  0
654 5  0
654 -649  0
-655 -3 650  0
655 3  0
655 -650  0
-656 3 650  0
656 -3  0
656 -650  0
-657 651 -261  0
657 -651  0
657 261  0
-658 652 493  0
658 -652  0
658 -493  0
659 -653 -654  0
-659 653  0
-659 654  0
-660 -10 655  0
660 10  0
660 -655  0
-661 10 656  0
661 -10  0
661 -656  0
662 -638 -657  0
-662 638  0
-662 657  0
-663 659 -493  0
663 -659  0
663 493  0
664 -660 -661  0
-664 660  0
-664 661  0
-665 -1 662  0
665 1  0
665 -662  0
-666 1 662  0
666 -1  0
666 -662  0
667 -658 -663  0
-667 658  0
-667 663  0
-668 1 664  0
668 -1  0
668 -664  0
-669 -1 664  0
669 1  0
669 -664  0
-670 664 -257  0
670 -664  0
670 257  0
-671 667 623  0
671 -667  0
671 -623  0
-672 641 -667  0
672 -641  0
672 667  0
-673 642 -667  0
673 -642  0
673 667  0
-674 667 628  0
674 -667  0
674 -628  0
675 -668 -665  0
-675 668  0
-675 665  0
676 -669 -666  0
-676 669  0
-676 666  0
677 -671 -672  0
-677 671  0
-677 672  0
678 -673 -674  0
-678 673  0
-678 674  0
-679 2 675  0
679 -2  0
679 -675  0
-680 -2 676  0
680 2  0
680 -676  0
681 -6 -677  0
-681 6  0
-681 677  0
682 6 -677  0
-682 -6  0
-682 677  0
-683 -275 677  0
683 275  0
683 -677  0
-684 -14 677  0
684 14  0
684 -677  0
-685 14 677  0
685 -14  0
685 -677  0
-686 279 677  0
686 -279  0
686 -677  0
-687 678 -275  0
687 -678  0
687 275  0
-688 -6 678  0
688 6  0
688 -678  0
-689 6 678  0
689 -6  0
689 -678  0
-690 -14 678  0
690 14  0
690 -678  0
-691 14 678  0
691 -14  0
691 -678  0
-692 678 279  0
692 -678  0
692 -279  0
693 -679 -680  0
-693 679  0
-693 680  0
-694 -10 681  0
694 10  0
694 -681  0
-695 10 682  0
695 -10  0
695 -682  0
-696 10 681  0
696 -10  0
696 -681  0
-697 -10 682  0
697 10  0
697 -682  0
-698 -10 688  0
698 10  0
698 -688  0
-699 10 689  0
699 -10  0
699 -689  0
-700 -10 689  0
700 10  0
700 -689  0
-701 10 688  0
701 -10  0
701 -688  0
-702 257 693  0
702 -257  0
702 -693  0
703 -694 -695  0
-703 694  0
-703 695  0
704 -696 -697  0
-704 696  0
-704 697  0
705 -698 -699  0
-705 698  0
-705 699  0
706 -700 -701  0
-706 700  0
-706 701  0
707 -702 -670  0
-707 702  0
-707 670  0
-708 703 275  0
708 -703  0
708 -275  0
709 -704 -277  0
-709 704  0
-709 277  0
-710 275 705  0
710 -275  0
710 -705  0
-711 275 706  0
711 -275  0
711 -706  0
712 -708 -683  0
-712 708  0
-712 683  0
-713 -497 709  0
713 497  0
713 -709  0
-714 709 497  0
714 -709  0
714 -497  0
715 -687 -710  0
-715 687  0
-715 710  0
-716 -497 711  0
716 497  0
716 -711  0
-717 711 497  0
717 -711  0
717 -497  0
-718 712 497  0
718 -712  0
718 -497  0
-719 -497 712  0
719 497  0
719 -712  0
-720 715 497  0
720 -715  0
720 -497  0
-721 715 -497  0
721 -715  0
721 497  0
722 -718 -713  0
-722 718  0
-722 713  0
723 -714 -719  0
-723 714  0
-723 719  0
724 -720 -716  0
-724 720  0
-724 716  0
725 -717 -721  0
-725 717  0
-725 721  0
726 -14 -722  0
-726 14  0
-726 722  0
727 14 -722  0
-727 -14  0
-727 722  0
-728 722 279  0
728 -722  0
728 -279  0
-729 14 723  0
729 -14  0
729 -723  0
-730 -14 723  0
730 14  0
730 -723  0
-731 723 279  0
731 -723  0
731 -279  0
-732 -14 724  0
732 14  0
732 -724  0
-733 14 724  0
733 -14  0
733 -724  0
-734 724 279  0
734 -724  0
734 -279  0
-735 279 725  0
735 -279  0
735 -725  0
-736 14 725  0
736 -14  0
736 -725  0
-737 -14 725  0
737 14  0
737 -725  0
-738 1 726  0
738 -1  0
738 -726  0
-739 -1 727  0
739 1  0
739 -727  0
-740 1 727  0
740 -1  0
740 -727  0
-741 -1 726  0
741 1  0
741 -726  0
742 -729 -684  0
-742 729  0
-742 684  0
743 -730 -685  0
-743 730  0
-743 685  0
-744 1 732  0
744 -1  0
744 -732  0
-745 -1 733  0
745 1  0
745 -733  0
-746 -1 732  0
746 1  0
746 -732  0
-747 1 733  0
747 -1  0
747 -733  0
748 -736 -690  0
-748 736  0
-748 690  0
749 -691 -737  0
-749 691  0
-749 737  0
750 -738 -739  0
-750 738  0
-750 739  0
751 -740 -741  0
-751 740  0
-751 741  0
-752 1 742  0
752 -1  0
752 -742  0
-753 -1 743  0
753 1  0
753 -743  0
-754 1 743  0
754 -1  0
754 -743  0
-755 -1 742  0
755 1  0
755 -742  0
756 -744 -745  0
-756 744  0
-756 745  0
757 -746 -747  0
-757 746  0
-757 747  0
-758 1 748  0
758 -1  0
758 -748  0
-759 -1 749  0
759 1  0
759 -749  0
-760 1 749  0
760 -1  0
760 -749  0
-761 -1 748  0
761 1  0
761 -748  0
762 -750 -278  0
-762 750  0
-762 278  0
-763 -279 751  0
763 279  0
763 -751  0
764 -752 -753  0
-764 752  0
-764 753  0
765 -754 -755  0
-765 754  0
-765 755  0
-766 -279 756  0
766 279  0
766 -756  0
-767 -279 757  0
767 279  0
767 -757  0
768 -758 -759  0
-768 758  0
-768 759  0
769 -760 -761  0
-769 760  0
-769 761  0
-770 491 762  0
770 -491  0
770 -762  0
771 -728 -763  0
-771 728  0
-771 763  0
-772 -279 764  0
772 279  0
772 -764  0
-773 -279 765  0
773 279  0
773 -765  0
-774 766 491  0
774 -766  0
774 -491  0
775 -767 -734  0
-775 767  0
-775 734  0
-776 -279 768  0
776 279  0
776 -768  0
-777 -279 769  0
777 279  0
777 -769  0
-778 771 -491  0
778 -771  0
778 491  0
779 -772 -731  0
-779 772  0
-779 731  0
780 -773 -686  0
-780 773  0
-780 686  0
-781 -491 775  0
781 491  0
781 -775  0
782 -735 -776  0
-782 735  0
-782 776  0
783 -777 -692  0
-783 777  0
-783 692  0
784 -770 -778  0
-784 770  0
-784 778  0
-785 779 -491  0
785 -779  0
785 491  0
-786 780 491  0
786 -780  0
786 -491  0
787 -774 -781  0
-787 774  0
-787 781  0
-788 -491 782  0
788 491  0
788 -782  0
-789 491 783  0
789 -491  0
789 -783  0
-790 707 784  0
790 -707  0
790 -784  0
791 -785 -786  0
-791 785  0
-791 786  0
-792 707 787  0
792 -707  0
792 -787  0
793 -788 -789  0
-793 788  0
-793 789  0
-794 791 -707  0
794 -791  0
794 707  0
-795 -707 793  0
795 707  0
795 -793  0
796 -790 -794  0
-796 790  0
-796 794  0
797 -792 -795  0
-797 792  0
-797 795  0
-798 796 614  0
798 -796  0
798 -614  0
-799 -614 797  0
799 614  0
799 -797  0
800 -798 -799  0
-800 798  0
-800 799  0
